128
0 125 69 56 55 12 35 30 51 109 
14 20 42 114 99 103 81 119 104 25 
6 111 40 95 59 57 90 41 122 39 
124 76 121 32 3 91 66 117 11 27 
28 108 61 123 7 88 53 120 77 18 
79 4 5 58 105 101 1 15 43 113 
23 97 67 70 44 100 26 34 106 126 
73 33 96 112 118 9 74 16 65 2 
62 50 83 19 46 31 52 29 86 80 
110 17 75 47 82 8 21 84 22 38 
127 116 102 63 24 107 93 48 54 64 
72 60 98 36 68 49 13 37 94 10 
115 78 87 92 71 45 85 89 
